NAME : in_house_8_13
TYPE : TSP
DIMENSION : 8
EDGE_WEIGHT_TYPE : EXPLICIT
EDGE_WEIGHT_FORMAT : UPPER_ROW
COMMENT : INVERSION_SHIFT=5
EDGE_WEIGHT_SECTION
42
30
24
51
19
11
52
39
27
18
62
13
9
4
64
18
24
12
14
24
26
41
49
8
35
51
24
25
